14° run output:
{
    "Function": "kroA300.tsp",
    "Problem dimension": [
        231,
        96,
        130,
        162,
        31,
        273,
        106,
        23,
        25,
        269,
        115,
        12,
        287,
        51,
        87,
        210,
        208,
        61,
        184,
        170,
        160,
        299,
        183,
        11,
        236,
        1,
        136,
        108,
        254,
        49,
        177,
        138,
        82,
        70,
        145,
        41,
        134,
        33,
        62,
        165,
        50,
        206,
        28,
        2,
        289,
        118,
        0,
        274,
        91,
        174,
        237,
        263,
        220,
        110,
        190,
        191,
        196,
        251,
        286,
        228,
        195,
        224,
        55,
        97,
        257,
        90,
        109,
        284,
        22,
        78,
        185,
        40,
        198,
        199,
        293,
        219,
        148,
        132,
        42,
        57,
        76,
        260,
        163,
        201,
        54,
        122,
        36,
        135,
        131,
        65,
        5,
        60,
        48,
        53,
        279,
        232,
        238,
        250,
        294,
        74,
        105,
        225,
        154,
        26,
        252,
        125,
        34,
        242,
        278,
        244,
        63,
        179,
        116,
        52,
        92,
        261,
        277,
        239,
        126,
        144,
        150,
        94,
        180,
        117,
        8,
        164,
        233,
        147,
        218,
        119,
        159,
        13,
        59,
        205,
        152,
        137,
        3,
        77,
        123,
        223,
        102,
        235,
        103,
        9,
        155,
        98,
        69,
        75,
        86,
        35,
        215,
        124,
        267,
        297,
        133,
        7,
        111,
        161,
        45,
        226,
        246,
        56,
        143,
        139,
        157,
        93,
        20,
        67,
        19,
        4,
        200,
        80,
        187,
        121,
        140,
        188,
        169,
        81,
        230,
        153,
        253,
        265,
        112,
        227,
        168,
        241,
        189,
        158,
        120,
        64,
        16,
        100,
        283,
        248,
        114,
        151,
        104,
        275,
        259,
        262,
        113,
        24,
        44,
        243,
        32,
        181,
        290,
        281,
        89,
        46,
        203,
        95,
        15,
        298,
        142,
        38,
        216,
        212,
        207,
        43,
        141,
        192,
        268,
        178,
        282,
        83,
        280,
        156,
        209,
        172,
        85,
        186,
        194,
        214,
        149,
        229,
        128,
        182,
        176,
        276,
        285,
        101,
        204,
        272,
        193,
        256,
        173,
        175,
        6,
        171,
        291,
        292,
        288,
        37,
        146,
        202,
        47,
        295,
        258,
        107,
        221,
        167,
        30,
        240,
        88,
        234,
        296,
        58,
        18,
        255,
        249,
        270,
        72,
        29,
        271,
        71,
        217,
        14,
        245,
        213,
        166,
        266,
        222,
        211,
        129,
        68,
        127,
        197,
        17,
        39,
        84,
        73,
        99,
        10,
        79,
        66,
        21,
        264,
        27,
        247
    ],
    "Global Optimum": 0,
    "Algorithm": "Genetic algorithm",
    "Parameters": {
        "population": 30,
        "offspring": 30,
        "mutation probability": 0.0033333333333333335,
        "crossover probability": 0.9
    },
    "Fitness": 357121,
    "Solution": [
        231,
        96,
        130,
        162,
        31,
        273,
        106,
        23,
        25,
        269,
        115,
        12,
        287,
        51,
        87,
        210,
        208,
        61,
        184,
        170,
        160,
        299,
        183,
        11,
        236,
        1,
        136,
        108,
        254,
        49,
        177,
        138,
        82,
        70,
        145,
        41,
        134,
        33,
        62,
        165,
        50,
        206,
        28,
        2,
        289,
        118,
        0,
        274,
        91,
        174,
        237,
        263,
        220,
        110,
        190,
        191,
        196,
        251,
        286,
        228,
        195,
        224,
        55,
        97,
        257,
        90,
        109,
        284,
        22,
        78,
        185,
        40,
        198,
        199,
        293,
        219,
        148,
        132,
        42,
        57,
        76,
        260,
        163,
        201,
        54,
        122,
        36,
        135,
        131,
        65,
        5,
        60,
        48,
        53,
        279,
        232,
        238,
        250,
        294,
        74,
        105,
        225,
        154,
        26,
        252,
        125,
        34,
        242,
        278,
        244,
        63,
        179,
        116,
        52,
        92,
        261,
        277,
        239,
        126,
        144,
        150,
        94,
        180,
        117,
        8,
        164,
        233,
        147,
        218,
        119,
        159,
        13,
        59,
        205,
        152,
        137,
        3,
        77,
        123,
        223,
        102,
        235,
        103,
        9,
        155,
        98,
        69,
        75,
        86,
        35,
        215,
        124,
        267,
        297,
        133,
        7,
        111,
        161,
        45,
        226,
        246,
        56,
        143,
        139,
        157,
        93,
        20,
        67,
        19,
        4,
        200,
        80,
        187,
        121,
        140,
        188,
        169,
        81,
        230,
        153,
        253,
        265,
        112,
        227,
        168,
        241,
        189,
        158,
        120,
        64,
        16,
        100,
        283,
        248,
        114,
        151,
        104,
        275,
        259,
        262,
        113,
        24,
        44,
        243,
        32,
        181,
        290,
        281,
        89,
        46,
        203,
        95,
        15,
        298,
        142,
        38,
        216,
        212,
        207,
        43,
        141,
        192,
        268,
        178,
        282,
        83,
        280,
        156,
        209,
        172,
        85,
        186,
        194,
        214,
        149,
        229,
        128,
        182,
        176,
        276,
        285,
        101,
        204,
        272,
        193,
        256,
        173,
        175,
        6,
        171,
        291,
        292,
        288,
        37,
        146,
        202,
        47,
        295,
        258,
        107,
        221,
        167,
        30,
        240,
        88,
        234,
        296,
        58,
        18,
        255,
        249,
        270,
        72,
        29,
        271,
        71,
        217,
        14,
        245,
        213,
        166,
        266,
        222,
        211,
        129,
        68,
        127,
        197,
        17,
        39,
        84,
        73,
        99,
        10,
        79,
        66,
        21,
        264,
        27,
        247
    ],
    "Nb of functions evaluations": 50010,
    "Computational time in seconds": 142.52477359771729,
    "Stopping criterion in evaluations": 50000
}